
Gurobi 7.5.2 (linux64) logging started Sat Jul  7 15:57:31 2018

Changed value of parameter LogFile to result/ilp/simNo_1-n_100-m_40-s_10-minVAF_0.05-cov_10000-k_2-fn_0.25-fp_0.0001-na_0.15.ILP.gurobiSolverLog
   Prev: gurobi.log  Default: 
Changed value of parameter TimeLimit to 86400.0
   Prev: 1e+100  Min: 0.0  Max: 1e+100  Default: 1e+100
Optimize a model with 639293 rows, 10765 columns and 1940420 nonzeros
Variable types: 0 continuous, 10765 integer (10765 binary)
Coefficient statistics:
  Matrix range     [1e-04, 4e+00]
  Objective range  [1e+00, 2e+01]
  Bounds range     [1e+00, 1e+00]
  RHS range        [6e-02, 2e+00]
Found heuristic solution: objective -7874.129114
Presolve removed 142065 rows and 1145 columns (presolve time = 5s) ...
Presolve removed 142765 rows and 1145 columns (presolve time = 11s) ...
Presolve removed 212765 rows and 1845 columns (presolve time = 16s) ...
Presolve removed 212765 rows and 1845 columns
Presolve time: 16.52s
Presolved: 426528 rows, 8920 columns, 1279365 nonzeros
Variable types: 0 continuous, 8920 integer (8920 binary)
Presolved: 8920 rows, 435448 columns, 1288285 nonzeros

Presolve removed 8920 rows and 435448 columns

Root simplex log...

Iteration    Objective       Primal Inf.    Dual Inf.      Time
       0    4.4286506e+01   0.000000e+00   3.912000e+04     20s
    4259   -7.3111047e+01   0.000000e+00   1.153831e+04     20s
   19808   -2.0846982e+02   0.000000e+00   0.000000e+00     24s
   19808   -2.0846982e+02   0.000000e+00   0.000000e+00     25s

Root relaxation: objective -2.084698e+02, 19808 iterations, 7.07 seconds
Total elapsed time = 25.59s
Total elapsed time = 35.27s

    Nodes    |    Current Node    |     Objective Bounds      |     Work
 Expl Unexpl |  Obj  Depth IntInf | Incumbent    BestBd   Gap | It/Node Time

     0     0 -208.46982    0  846 -7874.1291 -208.46982  97.4%     -   42s
H    0     0                    -276.9548090 -208.46982  24.7%     -   47s
H    0     0                    -257.5815446 -208.46982  19.1%     -   48s
H    0     0                    -227.0712350 -208.46982  8.19%     -   50s
     0     0 -211.46638    0  773 -227.07123 -211.46638  6.87%     -   68s
     0     0 -211.60253    0  770 -227.07123 -211.60253  6.81%     -   76s
     0     0 -213.53491    0  825 -227.07123 -213.53491  5.96%     -   93s
H    0     0                    -223.1441967 -213.53491  4.31%     -   97s
     0     0 -213.55633    0  833 -223.14420 -213.55633  4.30%     -  100s
     0     0 -213.56205    0  817 -223.14420 -213.56205  4.29%     -  101s
     0     0 -213.56529    0  815 -223.14420 -213.56529  4.29%     -  104s
     0     0 -214.26056    0  208 -223.14420 -214.26056  3.98%     -  112s
     0     0 -214.37347    0 1143 -223.14420 -214.37347  3.93%     -  123s
     0     0 -214.56689    0  207 -223.14420 -214.56689  3.84%     -  133s
     0     0 -214.56689    0  209 -223.14420 -214.56689  3.84%     -  135s
     0     0 -215.16364    0  786 -223.14420 -215.16364  3.58%     -  203s
     0     0 -215.16364    0  836 -223.14420 -215.16364  3.58%     -  280s
     0     0 -215.17956    0  206 -223.14420 -215.17956  3.57%     -  306s
     0     0 -215.17956    0  212 -223.14420 -215.17956  3.57%     -  309s
     0     0 -215.79222    0  149 -223.14420 -215.79222  3.29%     -  333s
     0     0 -215.79222    0  283 -223.14420 -215.79222  3.29%     -  366s
     0     0 -215.79222    0  206 -223.14420 -215.79222  3.29%     -  368s
     0     0 -215.79222    0  193 -223.14420 -215.79222  3.29%     -  369s
     0     0 -215.79222    0  168 -223.14420 -215.79222  3.29%     -  370s
     0     0 -215.79222    0  164 -223.14420 -215.79222  3.29%     -  371s
     0     0 -215.79222    0  188 -223.14420 -215.79222  3.29%     -  371s
     0     0 -215.79222    0  190 -223.14420 -215.79222  3.29%     -  372s
     0     0 -215.79222    0  207 -223.14420 -215.79222  3.29%     -  375s
     0     0 -215.79222    0  214 -223.14420 -215.79222  3.29%     -  375s
     0     0 -215.79222    0  157 -223.14420 -215.79222  3.29%     -  379s
H    0     0                    -221.9188676 -215.79222  2.76%     -  380s
     0     0 -215.79222    0  206 -221.91887 -215.79222  2.76%     -  381s
     0     0 -215.80853    0  322 -221.91887 -215.80853  2.75%     -  383s
     0     0 -215.80853    0  202 -221.91887 -215.80853  2.75%     -  390s
     0     0 -215.80853    0  250 -221.91887 -215.80853  2.75%     -  391s
     0     0 -215.80853    0  206 -221.91887 -215.80853  2.75%     -  392s
     0     0 -215.80853    0  207 -221.91887 -215.80853  2.75%     -  392s
     0     0 -215.90635    0  259 -221.91887 -215.90635  2.71%     -  392s
     0     0 -216.21268    0  266 -221.91887 -216.21268  2.57%     -  392s
     0     0 -216.21268    0  268 -221.91887 -216.21268  2.57%     -  392s
     0     0 -216.30211    0  288 -221.91887 -216.30211  2.53%     -  393s
     0     0 -216.30211    0  286 -221.91887 -216.30211  2.53%     -  393s
     0     0 -216.47252    0  300 -221.91887 -216.47252  2.45%     -  393s
     0     0 -216.47512    0  300 -221.91887 -216.47512  2.45%     -  394s
     0     0 -216.47892    0  298 -221.91887 -216.47892  2.45%     -  394s
     0     0 -216.47892    0  299 -221.91887 -216.47892  2.45%     -  394s
     0     0 -216.48270    0  293 -221.91887 -216.48270  2.45%     -  394s
     0     0 -216.51902    0  225 -221.91887 -216.51902  2.43%     -  394s
     0     0 -216.51902    0  226 -221.91887 -216.51902  2.43%     -  395s
     0     0 -216.51902    0  223 -221.91887 -216.51902  2.43%     -  395s
     0     0 -216.51902    0  225 -221.91887 -216.51902  2.43%     -  395s
     0     0 -216.51902    0  230 -221.91887 -216.51902  2.43%     -  395s
     0     0 -216.53832    0  286 -221.91887 -216.53832  2.42%     -  396s
     0     0 -216.53832    0  286 -221.91887 -216.53832  2.42%     -  396s
     0     0 -216.77062    0  287 -221.91887 -216.77062  2.32%     -  397s
     0     0 -216.91504    0  290 -221.91887 -216.91504  2.25%     -  397s
     0     0 -216.91769    0  292 -221.91887 -216.91769  2.25%     -  397s
     0     0 -216.91769    0  293 -221.91887 -216.91769  2.25%     -  397s
     0     0 -217.00010    0  338 -221.91887 -217.00010  2.22%     -  398s
     0     0 -217.10885    0  291 -221.91887 -217.10885  2.17%     -  398s
     0     0 -217.11818    0  342 -221.91887 -217.11818  2.16%     -  398s
     0     0 -217.11818    0  343 -221.91887 -217.11818  2.16%     -  399s
     0     0 -217.29051    0  331 -221.91887 -217.29051  2.09%     -  399s
     0     0 -217.55345    0  282 -221.91887 -217.55345  1.97%     -  400s
     0     0 -217.61031    0  289 -221.91887 -217.61031  1.94%     -  400s
     0     0 -217.64476    0  325 -221.91887 -217.64476  1.93%     -  400s
     0     0 -217.67330    0  330 -221.91887 -217.67330  1.91%     -  400s
     0     0 -217.67330    0  330 -221.91887 -217.67330  1.91%     -  400s
     0     0 -217.67912    0  331 -221.91887 -217.67912  1.91%     -  400s
     0     0 -217.70635    0  327 -221.91887 -217.70635  1.90%     -  401s
     0     0 -217.70635    0  328 -221.91887 -217.70635  1.90%     -  401s
     0     0 -218.05812    0  334 -221.91887 -218.05812  1.74%     -  401s
     0     0 -218.08234    0  257 -221.91887 -218.08234  1.73%     -  402s
     0     0 -218.11126    0  374 -221.91887 -218.11126  1.72%     -  402s
     0     0 -218.11126    0  374 -221.91887 -218.11126  1.72%     -  402s
     0     0 -218.31704    0  289 -221.91887 -218.31704  1.62%     -  403s
     0     0 -218.35060    0  287 -221.91887 -218.35060  1.61%     -  404s
     0     0 -218.35338    0  334 -221.91887 -218.35338  1.61%     -  404s
     0     0 -218.35792    0  382 -221.91887 -218.35792  1.60%     -  404s
     0     0 -218.36308    0  334 -221.91887 -218.36308  1.60%     -  404s
     0     0 -218.36308    0  334 -221.91887 -218.36308  1.60%     -  404s
     0     0 -218.61473    0  245 -221.91887 -218.61473  1.49%     -  405s
     0     0 -218.61473    0  202 -221.91887 -218.61473  1.49%     -  407s
     0     0 -218.61473    0  243 -221.91887 -218.61473  1.49%     -  407s
     0     0 -218.61473    0  232 -221.91887 -218.61473  1.49%     -  407s
     0     0 -218.69505    0  271 -221.91887 -218.69505  1.45%     -  407s
     0     0 -218.74471    0  267 -221.91887 -218.74471  1.43%     -  407s
     0     0 -218.74471    0  267 -221.91887 -218.74471  1.43%     -  407s
     0     0 -219.02373    0  237 -221.91887 -219.02373  1.30%     -  407s
     0     0 -219.02373    0  202 -221.91887 -219.02373  1.30%     -  408s
     0     0 -219.02373    0  176 -221.91887 -219.02373  1.30%     -  408s
     0     0 -219.02373    0  234 -221.91887 -219.02373  1.30%     -  408s
     0     0 -219.06585    0  242 -221.91887 -219.06585  1.29%     -  408s
     0     0 -219.13442    0  238 -221.91887 -219.13442  1.25%     -  408s
     0     0 -219.13442    0  240 -221.91887 -219.13442  1.25%     -  408s
     0     0 -219.13442    0  240 -221.91887 -219.13442  1.25%     -  408s
     0     0 -219.13485    0  239 -221.91887 -219.13485  1.25%     -  408s
     0     0 -219.13585    0  216 -221.91887 -219.13585  1.25%     -  408s
     0     0 -219.13585    0  219 -221.91887 -219.13585  1.25%     -  409s
     0     0 -219.13585    0  231 -221.91887 -219.13585  1.25%     -  409s
     0     0 -219.14217    0  252 -221.91887 -219.14217  1.25%     -  409s
     0     0 -219.14780    0  262 -221.91887 -219.14780  1.25%     -  409s
     0     0 -219.14780    0  262 -221.91887 -219.14780  1.25%     -  409s
     0     0 -219.15495    0  247 -221.91887 -219.15495  1.25%     -  409s
     0     0 -219.15592    0  252 -221.91887 -219.15592  1.25%     -  409s
     0     0 -219.16188    0  216 -221.91887 -219.16188  1.24%     -  409s
     0     0 -219.16188    0  216 -221.91887 -219.16188  1.24%     -  409s
     0     0 -219.17405    0  240 -221.91887 -219.17405  1.24%     -  409s
     0     0 -219.17553    0  240 -221.91887 -219.17553  1.24%     -  409s
     0     0 -219.17553    0  242 -221.91887 -219.17553  1.24%     -  409s
     0     0 -219.21894    0  236 -221.91887 -219.21894  1.22%     -  409s
     0     0 -219.21894    0  237 -221.91887 -219.21894  1.22%     -  409s
     0     0 -219.31136    0  242 -221.91887 -219.31136  1.17%     -  409s
     0     0 -219.31136    0  243 -221.91887 -219.31136  1.17%     -  409s
     0     0 -219.35938    0  242 -221.91887 -219.35938  1.15%     -  409s
     0     0 -219.35938    0  242 -221.91887 -219.35938  1.15%     -  410s
     0     0 -219.43393    0  242 -221.91887 -219.43393  1.12%     -  410s
     0     0 -219.44368    0  255 -221.91887 -219.44368  1.12%     -  410s
     0     0 -219.44368    0  256 -221.91887 -219.44368  1.12%     -  410s
     0     0 -219.50488    0  253 -221.91887 -219.50488  1.09%     -  410s
     0     0 -219.56084    0  242 -221.91887 -219.56084  1.06%     -  410s
     0     0 -219.56417    0  243 -221.91887 -219.56417  1.06%     -  410s
     0     0 -219.56417    0  244 -221.91887 -219.56417  1.06%     -  410s
     0     0 -219.56417    0  235 -221.91887 -219.56417  1.06%     -  410s
     0     0 -219.56417    0  202 -221.91887 -219.56417  1.06%     -  410s
     0     0 -219.56417    0  197 -221.91887 -219.56417  1.06%     -  410s
     0     0 -219.56417    0  222 -221.91887 -219.56417  1.06%     -  410s
     0     0 -219.56417    0  211 -221.91887 -219.56417  1.06%     -  410s
     0     0 -219.56417    0  223 -221.91887 -219.56417  1.06%     -  410s
     0     0 -219.56417    0  224 -221.91887 -219.56417  1.06%     -  410s
     0     0 -219.64009    0  226 -221.91887 -219.64009  1.03%     -  410s
     0     0 -219.64351    0  230 -221.91887 -219.64351  1.03%     -  411s
     0     0 -219.64351    0  230 -221.91887 -219.64351  1.03%     -  411s
     0     0 -219.68961    0  228 -221.91887 -219.68961  1.00%     -  411s
     0     0 -219.72780    0  229 -221.91887 -219.72780  0.99%     -  411s
     0     0 -219.72789    0  233 -221.91887 -219.72789  0.99%     -  411s
     0     0 -219.86097    0  224 -221.91887 -219.86097  0.93%     -  411s
     0     0 -219.86097    0  225 -221.91887 -219.86097  0.93%     -  411s
     0     0 -219.98311    0  228 -221.91887 -219.98311  0.87%     -  411s
     0     0 -219.98311    0  229 -221.91887 -219.98311  0.87%     -  411s
     0     0 -220.00583    0  227 -221.91887 -220.00583  0.86%     -  411s
     0     0 -220.01311    0  236 -221.91887 -220.01311  0.86%     -  411s
     0     0 -220.01311    0  237 -221.91887 -220.01311  0.86%     -  411s
     0     0 -220.10708    0  226 -221.91887 -220.10708  0.82%     -  411s
     0     0 -220.10981    0  233 -221.91887 -220.10981  0.82%     -  411s
     0     0 -220.20415    0  232 -221.91887 -220.20415  0.77%     -  411s
     0     0 -220.20432    0  225 -221.91887 -220.20432  0.77%     -  411s
     0     0 -220.42242    0  230 -221.91887 -220.42242  0.67%     -  411s
     0     0 -220.43060    0  237 -221.91887 -220.43060  0.67%     -  411s
     0     0 -220.43060    0  237 -221.91887 -220.43060  0.67%     -  411s
     0     0 -220.45532    0  235 -221.91887 -220.45532  0.66%     -  411s
     0     0 -220.48892    0  232 -221.91887 -220.48892  0.64%     -  411s
     0     0 -220.49342    0  231 -221.91887 -220.49342  0.64%     -  411s
     0     0 -220.49342    0  231 -221.91887 -220.49342  0.64%     -  411s
     0     0 -220.49412    0  227 -221.91887 -220.49412  0.64%     -  411s
     0     0 -220.50032    0  237 -221.91887 -220.50032  0.64%     -  411s
     0     0 -220.50193    0  231 -221.91887 -220.50193  0.64%     -  411s
     0     0 -220.50193    0  231 -221.91887 -220.50193  0.64%     -  411s
     0     0 -220.54053    0  225 -221.91887 -220.54053  0.62%     -  411s
     0     0 -220.59434    0  232 -221.91887 -220.59434  0.60%     -  411s
     0     0 -220.64022    0  243 -221.91887 -220.64022  0.58%     -  411s
     0     0 -220.64256    0  240 -221.91887 -220.64256  0.58%     -  411s
     0     0 -220.64449    0  241 -221.91887 -220.64449  0.57%     -  411s
     0     0 -220.64449    0  241 -221.91887 -220.64449  0.57%     -  411s
     0     0 -220.64477    0  243 -221.91887 -220.64477  0.57%     -  411s
     0     0 -220.64477    0  243 -221.91887 -220.64477  0.57%     -  411s
     0     0 -220.64477    0  243 -221.91887 -220.64477  0.57%     -  411s
     0     0 -220.64477    0  240 -221.91887 -220.64477  0.57%     -  412s
     0     0 -220.64477    0  244 -221.91887 -220.64477  0.57%     -  412s
     0     0 -220.64477    0  244 -221.91887 -220.64477  0.57%     -  412s
     0     0 -220.64477    0  244 -221.91887 -220.64477  0.57%     -  412s
     0     0 -220.64477    0  207 -221.91887 -220.64477  0.57%     -  412s
     0     0 -220.64477    0  186 -221.91887 -220.64477  0.57%     -  412s
     0     0 -220.64477    0  224 -221.91887 -220.64477  0.57%     -  412s
     0     0 -220.64477    0  231 -221.91887 -220.64477  0.57%     -  412s
     0     0 -220.65318    0  229 -221.91887 -220.65318  0.57%     -  412s
     0     0 -220.65493    0  229 -221.91887 -220.65493  0.57%     -  412s
     0     0 -220.65652    0  229 -221.91887 -220.65652  0.57%     -  412s
     0     0 -220.66316    0  221 -221.91887 -220.66316  0.57%     -  412s
     0     0 -220.66316    0  201 -221.91887 -220.66316  0.57%     -  413s
     0     0 -220.66316    0  206 -221.91887 -220.66316  0.57%     -  413s
     0     0 -220.66316    0  191 -221.91887 -220.66316  0.57%     -  413s
     0     0 -220.66316    0  213 -221.91887 -220.66316  0.57%     -  413s
     0     0 -220.66504    0  212 -221.91887 -220.66504  0.56%     -  413s
     0     0 -220.66819    0  211 -221.91887 -220.66819  0.56%     -  413s
     0     0 -220.67409    0  211 -221.91887 -220.67409  0.56%     -  413s
     0     0 -220.69514    0  221 -221.91887 -220.69514  0.55%     -  413s
     0     0 -220.70574    0  221 -221.91887 -220.70574  0.55%     -  413s
     0     0 -220.76972    0  225 -221.91887 -220.76972  0.52%     -  413s
     0     0 -220.77014    0  226 -221.91887 -220.77014  0.52%     -  413s
     0     0 -220.77665    0  228 -221.91887 -220.77665  0.51%     -  413s
     0     0 -220.77665    0  227 -221.91887 -220.77665  0.51%     -  413s
     0     0 -220.77665    0  228 -221.91887 -220.77665  0.51%     -  413s
     0     0 -220.77665    0  228 -221.91887 -220.77665  0.51%     -  413s
     0     0 -220.82443    0  214 -221.91887 -220.82443  0.49%     -  413s
     0     0 -220.84480    0  218 -221.91887 -220.84480  0.48%     -  413s
     0     0 -220.84710    0  221 -221.91887 -220.84710  0.48%     -  413s
     0     0 -220.84710    0  220 -221.91887 -220.84710  0.48%     -  413s
     0     0 -220.84710    0  220 -221.91887 -220.84710  0.48%     -  413s
     0     0 -220.88686    0  216 -221.91887 -220.88686  0.47%     -  413s
     0     0 -220.88686    0  217 -221.91887 -220.88686  0.47%     -  413s
     0     0 -220.90785    0  222 -221.91887 -220.90785  0.46%     -  413s
     0     0 -220.91132    0  225 -221.91887 -220.91132  0.45%     -  413s
     0     0 -220.91136    0  231 -221.91887 -220.91136  0.45%     -  413s
     0     0 -220.93225    0  227 -221.91887 -220.93225  0.44%     -  413s
     0     0 -220.93357    0  227 -221.91887 -220.93357  0.44%     -  413s
     0     0 -220.99537    0  225 -221.91887 -220.99537  0.42%     -  413s
     0     0 -221.01641    0  224 -221.91887 -221.01641  0.41%     -  413s
     0     0 -221.02029    0  217 -221.91887 -221.02029  0.40%     -  413s
     0     0 -221.02029    0  217 -221.91887 -221.02029  0.40%     -  413s
     0     0 -221.02029    0  213 -221.91887 -221.02029  0.40%     -  413s
     0     0 -221.02029    0  199 -221.91887 -221.02029  0.40%     -  414s
     0     0 -221.02029    0  212 -221.91887 -221.02029  0.40%     -  414s
     0     0 -221.02029    0  217 -221.91887 -221.02029  0.40%     -  414s
     0     0 -221.05393    0  206 -221.91887 -221.05393  0.39%     -  414s
     0     0 -221.06044    0  212 -221.91887 -221.06044  0.39%     -  414s
     0     0 -221.06044    0  212 -221.91887 -221.06044  0.39%     -  414s
     0     0 -221.08156    0  212 -221.91887 -221.08156  0.38%     -  414s
     0     0 -221.08156    0  212 -221.91887 -221.08156  0.38%     -  414s
     0     0 -221.08156    0  213 -221.91887 -221.08156  0.38%     -  414s
     0     0 -221.08156    0  213 -221.91887 -221.08156  0.38%     -  414s
     0     0 -221.08156    0  210 -221.91887 -221.08156  0.38%     -  414s
     0     0 -221.08156    0  211 -221.91887 -221.08156  0.38%     -  414s
     0     0 -221.08156    0  211 -221.91887 -221.08156  0.38%     -  414s
     0     0 -221.08156    0  211 -221.91887 -221.08156  0.38%     -  414s
     0     0 -221.08156    0  209 -221.91887 -221.08156  0.38%     -  414s
     0     0 -221.08156    0  209 -221.91887 -221.08156  0.38%     -  414s
     0     2 -221.08156    0  209 -221.91887 -221.08156  0.38%     -  414s

Cutting planes:
  Gomory: 4
  Implied bound: 1
  MIR: 3
  Zero half: 42

Explored 20 nodes (112130 simplex iterations) in 415.00 seconds
Thread count was 1 (of 80 available processors)

Solution count 10: -221.919 -221.919 -221.919 ... -227.071

Optimal solution found (tolerance 1.00e-04)
Best objective -2.219188676333e+02, best bound -2.219188676333e+02, gap 0.0000%
